  Job Started  at 15:27.10 13th July       2023

  Number of CPUs =    32

  Host name      = nid001215

  Total number of configurations input =      1

*  Input for Configuration =   1 : CeO2                                        *

  Formula = La2Ce178O359

  Number of irreducible atoms/shells =    1078

  Total number atoms/shells =    1078

  Dimensionality = 3               :  Bulk

  Cartesian lattice vectors (Angstroms) :

       19.073999    0.000000    0.000000
        0.000000   19.822500    0.000000
        0.000000    0.000000   18.688801

  Cell parameters (Angstroms/Degrees):

  a =      19.0740    alpha =  90.0000
  b =      19.8225    beta  =  90.0000
  c =      18.6888    gamma =  90.0000

  Initial cell volume =        7066.130137 Angs**3

  Temperature of configuration =   0.00     K

  Pressure of configuration =         0.000 GPa

  Fractional coordinates of asymmetric unit :

   No.  Atomic       x           y          z         Charge      Occupancy
        Label      (Frac)      (Frac)     (Frac)        (e)         (Frac)
      1 La    c    0.300000 *  0.277777 *  0.166665 *  -6.94525    1.000000
      2 La    c    0.200000 *  0.666667 *  0.500000 *  -6.94525    1.000000
      3 Ce    c    0.700000 *  0.944443 *  0.166665 *  -9.85000    1.000000
      4 Ce    c    0.900000 *  0.944443 *  0.166665 *  -9.85000    1.000000
      5 Ce    c    0.000000 *  0.666667 *  0.500000 *  -9.85000    1.000000
      6 Ce    c    0.200000 *  0.111110 *  0.166665 *  -9.85000    1.000000
      7 Ce    c    0.600000 *  0.333333 *  0.000000 *  -9.85000    1.000000
      8 Ce    c    0.300000 *  0.055557 *  0.333335 *  -9.85000    1.000000
      9 Ce    c    0.800000 *  0.555557 *  0.333335 *  -9.85000    1.000000
     10 Ce    c    0.900000 *  0.722223 *  0.333335 *  -9.85000    1.000000
     11 Ce    c    0.700000 *  0.611110 *  0.166665 *  -9.85000    1.000000
     12 Ce    c    0.700000 *  0.722223 *  0.833335 *  -9.85000    1.000000
     13 Ce    c    0.700000 *  0.277777 *  0.166665 *  -9.85000    1.000000
     14 Ce    c    0.300000 *  0.388890 *  0.333335 *  -9.85000    1.000000
     15 Ce    c    0.400000 *  0.666667 *  0.000000 *  -9.85000    1.000000
     16 Ce    c    0.500000 *  0.944443 *  0.666665 *  -9.85000    1.000000
     17 Ce    c    0.500000 *  0.055557 *  0.333335 *  -9.85000    1.000000
     18 Ce    c    0.100000 *  0.722223 *  0.333335 *  -9.85000    1.000000
     19 Ce    c    0.900000 *  0.944443 *  0.666665 *  -9.85000    1.000000
     20 Ce    c    0.700000 *  0.388890 *  0.333335 *  -9.85000    1.000000
     21 Ce    c    0.800000 *  0.666667 *  0.500000 *  -9.85000    1.000000
     22 Ce    c    0.300000 *  0.055557 *  0.833335 *  -9.85000    1.000000
     23 Ce    c    0.100000 *  0.055557 *  0.833335 *  -9.85000    1.000000
     24 Ce    c    0.300000 *  0.500000 *  0.000000 *  -9.85000    1.000000
     25 Ce    c    0.000000 *  0.333333 *  0.500000 *  -9.85000    1.000000
     26 Ce    c    0.500000 *  0.277777 *  0.166665 *  -9.85000    1.000000
     27 Ce    c    0.000000 *  0.777777 *  0.166665 *  -9.85000    1.000000
     28 Ce    c    0.200000 *  0.555557 *  0.833335 *  -9.85000    1.000000
     29 Ce    c    0.900000 *  0.611110 *  0.666665 *  -9.85000    1.000000
     30 Ce    c    0.200000 *  0.888890 *  0.333335 *  -9.85000    1.000000
     31 Ce    c    0.000000 *  0.777777 *  0.666665 *  -9.85000    1.000000
     32 Ce    c    0.200000 *  0.333333 *  0.500000 *  -9.85000    1.000000
     33 Ce    c    0.600000 *  0.888890 *  0.833335 *  -9.85000    1.000000
     34 Ce    c    0.900000 *  0.722223 *  0.833335 *  -9.85000    1.000000
     35 Ce    c    0.200000 *  0.000000 *  0.000000 *  -9.85000    1.000000
     36 Ce    c    0.800000 *  0.777777 *  0.666665 *  -9.85000    1.000000
     37 Ce    c    0.500000 *  0.611110 *  0.666665 *  -9.85000    1.000000
     38 Ce    c    0.300000 *  0.722223 *  0.833335 *  -9.85000    1.000000
     39 Ce    c    0.900000 *  0.833333 *  0.000000 *  -9.85000    1.000000
     40 Ce    c    0.500000 *  0.722223 *  0.833335 *  -9.85000    1.000000
     41 Ce    c    0.100000 *  0.166667 *  0.500000 *  -9.85000    1.000000
     42 Ce    c    0.800000 *  0.777777 *  0.166665 *  -9.85000    1.000000
     43 Ce    c    0.100000 *  0.277777 *  0.166665 *  -9.85000    1.000000
     44 Ce    c    0.000000 *  0.000000 *  0.000000 *  -9.85000    1.000000
     45 Ce    c    0.400000 *  0.000000 *  0.500000 *  -9.85000    1.000000
     46 Ce    c    0.400000 *  0.888890 *  0.833335 *  -9.85000    1.000000
     47 Ce    c    0.100000 *  0.833333 *  0.000000 *  -9.85000    1.000000
     48 Ce    c    0.500000 *  0.833333 *  0.000000 *  -9.85000    1.000000
     49 Ce    c    0.100000 *  0.277777 *  0.666665 *  -9.85000    1.000000
     50 Ce    c    0.800000 *  0.111110 *  0.666665 *  -9.85000    1.000000
     51 Ce    c    0.900000 *  0.166667 *  0.500000 *  -9.85000    1.000000
     52 Ce    c    0.400000 *  0.333333 *  0.000000 *  -9.85000    1.000000
     53 Ce    c    0.900000 *  0.166667 *  0.000000 *  -9.85000    1.000000
     54 Ce    c    0.800000 *  0.222223 *  0.333335 *  -9.85000    1.000000
     55 Ce    c    0.100000 *  0.722223 *  0.833335 *  -9.85000    1.000000
     56 Ce    c    0.800000 *  0.888890 *  0.833335 *  -9.85000    1.000000
     57 Ce    c    0.100000 *  0.500000 *  0.500000 *  -9.85000    1.000000
     58 Ce    c    0.700000 *  0.944443 *  0.666665 *  -9.85000    1.000000
     59 Ce    c    0.600000 *  0.444443 *  0.666665 *  -9.85000    1.000000
     60 Ce    c    0.500000 *  0.277777 *  0.666665 *  -9.85000    1.000000
[...]
    525 O     c    0.300000 *  0.166667 *  0.875000 *   0.93635    1.000000
    526 O     c    0.800000 *  0.555557 *  0.458335 *   0.93635    1.000000
    527 O     c    0.900000 *  0.388890 *  0.958335 *   0.93635    1.000000
    528 O     c    0.900000 *  0.722223 *  0.958335 *   0.93635    1.000000
    529 O     c    0.100000 *  0.277777 *  0.041665 *   0.93635    1.000000
    530 O     c    0.800000 *  0.111110 *  0.541665 *   0.93635    1.000000
    531 O     c    0.400000 *  0.222223 *  0.208335 *   0.93635    1.000000
    532 O     c    0.300000 *  0.277777 *  0.791665 *   0.93635    1.000000
    533 O     c    0.300000 *  0.055557 *  0.708335 *   0.93635    1.000000
    534 O     c    0.500000 *  0.833333 *  0.625000 *   0.93635    1.000000
    535 O     c    0.200000 *  0.000000 *  0.875000 *   0.93635    1.000000
    536 O     c    0.800000 *  0.444443 *  0.541665 *   0.93635    1.000000
    537 O     c    0.200000 *  0.555557 *  0.958335 *   0.93635    1.000000
    538 O     c    0.800000 *  0.888890 *  0.458335 *   0.93635    1.000000
    539 O     c    0.700000 *  0.500000 *  0.125000 *   0.93635    1.000000
    540 La    s    0.300000 *  0.277777 *  0.166665 *   9.94525    1.000000
    541 La    s    0.200000 *  0.666667 *  0.500000 *   9.94525    1.000000
    542 Ce    s    0.700000 *  0.944443 *  0.166665 *  13.85000    1.000000
    543 Ce    s    0.900000 *  0.944443 *  0.166665 *  13.85000    1.000000
    544 Ce    s    0.000000 *  0.666667 *  0.500000 *  13.85000    1.000000
    545 Ce    s    0.200000 *  0.111110 *  0.166665 *  13.85000    1.000000
    546 Ce    s    0.600000 *  0.333333 *  0.000000 *  13.85000    1.000000
    547 Ce    s    0.300000 *  0.055557 *  0.333335 *  13.85000    1.000000
    548 Ce    s    0.800000 *  0.555557 *  0.333335 *  13.85000    1.000000
    549 Ce    s    0.900000 *  0.722223 *  0.333335 *  13.85000    1.000000
    550 Ce    s    0.700000 *  0.611110 *  0.166665 *  13.85000    1.000000
    551 Ce    s    0.700000 *  0.722223 *  0.833335 *  13.85000    1.000000
    552 Ce    s    0.700000 *  0.277777 *  0.166665 *  13.85000    1.000000
    553 Ce    s    0.300000 *  0.388890 *  0.333335 *  13.85000    1.000000
    554 Ce    s    0.400000 *  0.666667 *  0.000000 *  13.85000    1.000000
    555 Ce    s    0.500000 *  0.944443 *  0.666665 *  13.85000    1.000000
    556 Ce    s    0.500000 *  0.055557 *  0.333335 *  13.85000    1.000000
    557 Ce    s    0.100000 *  0.722223 *  0.333335 *  13.85000    1.000000
    558 Ce    s    0.900000 *  0.944443 *  0.666665 *  13.85000    1.000000
    559 Ce    s    0.700000 *  0.388890 *  0.333335 *  13.85000    1.000000
    560 Ce    s    0.800000 *  0.666667 *  0.500000 *  13.85000    1.000000
    561 Ce    s    0.300000 *  0.055557 *  0.833335 *  13.85000    1.000000
    562 Ce    s    0.100000 *  0.055557 *  0.833335 *  13.85000    1.000000
    563 Ce    s    0.300000 *  0.500000 *  0.000000 *  13.85000    1.000000
    564 Ce    s    0.000000 *  0.333333 *  0.500000 *  13.85000    1.000000
    565 Ce    s    0.500000 *  0.277777 *  0.166665 *  13.85000    1.000000
    566 Ce    s    0.000000 *  0.777777 *  0.166665 *  13.85000    1.000000
    567 Ce    s    0.200000 *  0.555557 *  0.833335 *  13.85000    1.000000
    568 Ce    s    0.900000 *  0.611110 *  0.666665 *  13.85000    1.000000
    569 Ce    s    0.200000 *  0.888890 *  0.333335 *  13.85000    1.000000
    570 Ce    s    0.000000 *  0.777777 *  0.666665 *  13.85000    1.000000
    571 Ce    s    0.200000 *  0.333333 *  0.500000 *  13.85000    1.000000
    572 Ce    s    0.600000 *  0.888890 *  0.833335 *  13.85000    1.000000
    573 Ce    s    0.900000 *  0.722223 *  0.833335 *  13.85000    1.000000
    574 Ce    s    0.200000 *  0.000000 *  0.000000 *  13.85000    1.000000
    575 Ce    s    0.800000 *  0.777777 *  0.666665 *  13.85000    1.000000
    576 Ce    s    0.500000 *  0.611110 *  0.666665 *  13.85000    1.000000
    577 Ce    s    0.300000 *  0.722223 *  0.833335 *  13.85000    1.000000
    578 Ce    s    0.900000 *  0.833333 *  0.000000 *  13.85000    1.000000
    579 Ce    s    0.500000 *  0.722223 *  0.833335 *  13.85000    1.000000
    580 Ce    s    0.100000 *  0.166667 *  0.500000 *  13.85000    1.000000
    581 Ce    s    0.800000 *  0.777777 *  0.166665 *  13.85000    1.000000
    582 Ce    s    0.100000 *  0.277777 *  0.166665 *  13.85000    1.000000
    583 Ce    s    0.000000 *  0.000000 *  0.000000 *  13.85000    1.000000
    584 Ce    s    0.400000 *  0.000000 *  0.500000 *  13.85000    1.000000
    585 Ce    s    0.400000 *  0.888890 *  0.833335 *  13.85000    1.000000
    586 Ce    s    0.100000 *  0.833333 *  0.000000 *  13.85000    1.000000
    587 Ce    s    0.500000 *  0.833333 *  0.000000 *  13.85000    1.000000
    588 Ce    s    0.100000 *  0.277777 *  0.666665 *  13.85000    1.000000
    589 Ce    s    0.800000 *  0.111110 *  0.666665 *  13.85000    1.000000
    590 Ce    s    0.900000 *  0.166667 *  0.500000 *  13.85000    1.000000
    591 Ce    s    0.400000 *  0.333333 *  0.000000 *  13.85000    1.000000
    592 Ce    s    0.900000 *  0.166667 *  0.000000 *  13.85000    1.000000
    593 Ce    s    0.800000 *  0.222223 *  0.333335 *  13.85000    1.000000
    594 Ce    s    0.100000 *  0.722223 *  0.833335 *  13.85000    1.000000
    595 Ce    s    0.800000 *  0.888890 *  0.833335 *  13.85000    1.000000
    596 Ce    s    0.100000 *  0.500000 *  0.500000 *  13.85000    1.000000
    597 Ce    s    0.700000 *  0.944443 *  0.666665 *  13.85000    1.000000
[...]
   551  Ce    s     0.699967    0.721971    0.834080    0.000000
   552  Ce    s     0.700154    0.277459    0.166204    0.000000
   553  Ce    s     0.300255    0.389259    0.333838    0.000000
   554  Ce    s     0.400066    0.667054    0.000133    0.000000
   555  Ce    s     0.502595    0.944195    0.666928    0.000000
   556  Ce    s     0.499625    0.055397    0.333267    0.000000
   557  Ce    s     0.099598    0.722331    0.332800    0.000000
   558  Ce    s     0.897362    0.944136    0.666817    0.000000
   559  Ce    s     0.700101    0.388909    0.333180    0.000000
   560  Ce    s     0.799877    0.666692    0.500280    0.000000
   561  Ce    s     0.299297    0.054996    0.832805    0.000000
   562  Ce    s     0.100473    0.055023    0.832912    0.000000
   563  Ce    s     0.300278    0.500829    0.999819    0.000000
   564  Ce    s     0.999833    0.333363    0.500020    0.000000
   565  Ce    s     0.500692    0.277736    0.166220    0.000000
   566  Ce    s     0.999819    0.777796    0.166795    0.000000
   567  Ce    s     0.200071    0.556344    0.832923    0.000000
   568  Ce    s     0.899361    0.610856    0.667086    0.000000
   569  Ce    s     0.200082    0.887782    0.330774    0.000000
   570  Ce    s     0.998103    0.775876    0.667233    0.000000
   571  Ce    s     0.199819    0.333532    0.500827    0.000000
   572  Ce    s     0.600802    0.888754    0.834226    0.000000
   573  Ce    s     0.899156    0.721793    0.834296    0.000000
   574  Ce    s     0.199807    0.000458    0.999995    0.000000
   575  Ce    s     0.799318    0.777354    0.667106    0.000000
   576  Ce    s     0.500601    0.610793    0.666937    0.000000
   577  Ce    s     0.300903    0.723107    0.832946    0.000000
   578  Ce    s     0.899278    0.833013    0.001087    0.000000
   579  Ce    s     0.500808    0.721990    0.834197    0.000000
   580  Ce    s     0.099537    0.166051    0.500459    0.000000
   581  Ce    s     0.800015    0.777779    0.167574    0.000000
   582  Ce    s     0.099235    0.278008    0.166548    0.000000
   583  Ce    s     0.999575    0.000035    0.999464    0.000000
   584  Ce    s     0.399749    0.000576    0.500341    0.000000
   585  Ce    s     0.401795    0.888197    0.835496    0.000000
   586  Ce    s     0.099856    0.833261    0.999786    0.000000
   587  Ce    s     0.500728    0.833238    0.001061    0.000000
   588  Ce    s     0.098951    0.279936    0.666884    0.000000
   589  Ce    s     0.800042    0.111047    0.666466    0.000000
   590  Ce    s     0.899628    0.166922    0.499623    0.000000
   591  Ce    s     0.400363    0.333525    0.999149    0.000000
   592  Ce    s     0.900038    0.166416    0.999163    0.000000
   593  Ce    s     0.799982    0.222213    0.333062    0.000000
   594  Ce    s     0.099143    0.722898    0.833025    0.000000
   595  Ce    s     0.799282    0.888650    0.834177    0.000000
   596  Ce    s     0.099395    0.499528    0.500130    0.000000
   597  Ce    s     0.700010    0.944243    0.666865    0.000000
   598  Ce    s     0.600095    0.444308    0.666570    0.000000
   599  Ce    s     0.499891    0.277753    0.666637    0.000000
[...]
  1064  O     s     0.300424    0.166124    0.874787    0.000000
  1065  O     s     0.800089    0.556041    0.458798    0.000000
  1066  O     s     0.899624    0.388485    0.957968    0.000000
  1067  O     s     0.899578    0.721958    0.958873    0.000000
  1068  O     s     0.098738    0.276761    0.039537    0.000000
  1069  O     s     0.800385    0.111121    0.541330    0.000000
  1070  O     s     0.406594    0.218436    0.210834    0.000000
  1071  O     s     0.300519    0.277714    0.792271    0.000000
  1072  O     s     0.289369    0.049556    0.699260    0.000000
  1073  O     s     0.502043    0.833735    0.625308    0.000000
  1074  O     s     0.200019    0.999971    0.871697    0.000000
  1075  O     s     0.799937    0.444477    0.542215    0.000000
  1076  O     s     0.199577    0.558492    0.956492    0.000000
  1077  O     s     0.799684    0.888970    0.458634    0.000000
  1078  O     s     0.700160    0.499805    0.124849    0.000000

  Final Cartesian lattice vectors (Angstroms) :

       19.073999    0.000000    0.000000
        0.000000   19.822500    0.000000
        0.000000    0.000000   18.688801

  Final cell parameters and derivatives :

       a           19.073999 Angstrom     dE/de1(xx)     0.000000 eV/strain
       b           19.822500 Angstrom     dE/de2(yy)     0.000000 eV/strain
       c           18.688801 Angstrom     dE/de3(zz)     0.000000 eV/strain
       alpha       90.000000 Degrees      dE/de4(yz)     0.000000 eV/strain
       beta        90.000000 Degrees      dE/de5(xz)     0.000000 eV/strain
       gamma       90.000000 Degrees      dE/de6(xy)     0.000000 eV/strain

  Primitive cell volume =          7066.130137 Angs**3

  Density of cell =      7.276456 g/cm**3

  Non-primitive cell volume =          7066.130137 Angs**3

  Final internal derivatives :

   No.  Atomic          a             b             c           Radius
        Label          (eV)          (eV)          (eV)        (eV/Angs)
      1 La    c       0.000110     -0.000688      0.000302      0.000000
      2 La    c       0.000003     -0.000685     -0.000433      0.000000
      3 Ce    c      -0.000017      0.000889     -0.001344      0.000000
      4 Ce    c       0.000015      0.000809     -0.001043      0.000000
      5 Ce    c      -0.000417     -0.000853     -0.000648      0.000000
      6 Ce    c      -0.000078     -0.001280      0.000891      0.000000
      7 Ce    c      -0.000704      0.001743      0.000066      0.000000
      8 Ce    c       0.000250     -0.001179      0.002278      0.000000
      9 Ce    c       0.000192      0.001171     -0.001662      0.000000
     10 Ce    c      -0.000125      0.000390     -0.000477      0.000000
     11 Ce    c      -0.000070      0.001833     -0.002230      0.000000
     12 Ce    c       0.000051      0.001914     -0.002606      0.000000
     13 Ce    c       0.000052      0.001537     -0.000268      0.000000
     14 Ce    c       0.000030     -0.001334      0.001377      0.000000
     15 Ce    c      -0.000412     -0.000692      0.000030      0.000000
     16 Ce    c      -0.000020      0.000387      0.000457      0.000000
     17 Ce    c       0.000044      0.000587      0.000589      0.000000
     18 Ce    c       0.000078     -0.001283      0.000220      0.000000
     19 Ce    c       0.000081      0.000472      0.000358      0.000000
     20 Ce    c       0.000087      0.001897     -0.000743      0.000000
     21 Ce    c      -0.000155      0.001099     -0.001982      0.000000
     22 Ce    c      -0.000319     -0.001348      0.002026      0.000000
     23 Ce    c       0.000339     -0.001189      0.002018      0.000000
     24 Ce    c       0.000023     -0.001022      0.001189      0.000000
     25 Ce    c       0.000073     -0.000130      0.000232      0.000000
     26 Ce    c       0.000118      0.000662     -0.000017      0.000000
     27 Ce    c       0.000728     -0.000585     -0.000878      0.000000
     28 Ce    c       0.000040     -0.001521     -0.000395      0.000000
     29 Ce    c       0.000053      0.000457     -0.000312      0.000000
     30 Ce    c      -0.000006     -0.001226      0.002108      0.000000
     31 Ce    c       0.000227     -0.000299      0.000177      0.000000
     32 Ce    c       0.000035     -0.001353      0.000744      0.000000
     33 Ce    c       0.000013      0.000940     -0.001500      0.000000
     34 Ce    c      -0.000043      0.000344     -0.001575      0.000000
     35 Ce    c      -0.000005     -0.001080      0.001999      0.000000
     36 Ce    c      -0.000044      0.001434     -0.000409      0.000000
     37 Ce    c      -0.000074      0.000397     -0.000239      0.000000
     38 Ce    c       0.000057     -0.001160     -0.000393      0.000000
     39 Ce    c       0.000147      0.000382     -0.000113      0.000000
     40 Ce    c       0.000026      0.000414     -0.001622      0.000000
     41 Ce    c      -0.000803     -0.001302      0.000892      0.000000
     42 Ce    c      -0.000152      0.001393     -0.001867      0.000000
     43 Ce    c      -0.000242     -0.001443      0.000792      0.000000
     44 Ce    c      -0.000072     -0.000645      0.001288      0.000000
     45 Ce    c       0.000503      0.000193     -0.000139      0.000000
     46 Ce    c      -0.000350     -0.000376     -0.000243      0.000000
     47 Ce    c      -0.000061     -0.001313      0.000945      0.000000
     48 Ce    c      -0.000216      0.000389     -0.000021      0.000000
     49 Ce    c      -0.000005     -0.001560      0.001568      0.000000
     50 Ce    c      -0.000077      0.001124      0.000607      0.000000
     51 Ce    c      -0.000162      0.000579     -0.000065      0.000000
     52 Ce    c       0.000133     -0.000616      0.001305      0.000000
     53 Ce    c      -0.000383      0.001038      0.000630      0.000000
     54 Ce    c       0.000217      0.001184      0.000286      0.000000
     55 Ce    c      -0.000024     -0.001068     -0.000540      0.000000
     56 Ce    c      -0.000055      0.001055     -0.001561      0.000000
     57 Ce    c      -0.000121     -0.001055      0.000065      0.000000
     58 Ce    c       0.000036      0.001604     -0.000506      0.000000
     59 Ce    c       0.000294      0.001079     -0.000118      0.000000
     60 Ce    c      -0.000525      0.000475      0.001276      0.000000
[...]
    525 O     c      -0.000152      0.000051      0.000136      0.000000
    526 O     c       0.000051      0.000119     -0.000188      0.000000
    527 O     c       0.000144      0.000003     -0.000087      0.000000
    528 O     c      -0.000084      0.000003     -0.000205      0.000000
    529 O     c       0.000126     -0.000007      0.000089      0.000000
    530 O     c      -0.000010      0.000012      0.000048      0.000000
    531 O     c       0.000138      0.000040      0.000064      0.000000
    532 O     c       0.000268      0.000126      0.000155      0.000000
    533 O     c       0.000580      0.000250      0.000339      0.000000
    534 O     c       0.000159     -0.000119     -0.000243      0.000000
    535 O     c      -0.000022     -0.000288     -0.000317      0.000000
    536 O     c      -0.000023      0.000148      0.000117      0.000000
    537 O     c       0.000014     -0.000247     -0.000194      0.000000
    538 O     c       0.000078     -0.000079     -0.000014      0.000000
    539 O     c       0.000026      0.000108      0.000061      0.000000
    540 La    s      -0.000024     -0.000562      0.000893      0.000000
    541 La    s      -0.000004     -0.000688      0.000576      0.000000
    542 Ce    s      -0.000035      0.001469     -0.000385      0.000000
    543 Ce    s       0.000079      0.000297      0.000305      0.000000
    544 Ce    s       0.000025     -0.000598      0.000055      0.000000
    545 Ce    s       0.000019     -0.001584      0.002362      0.000000
    546 Ce    s      -0.000261      0.001231     -0.001013      0.000000
    547 Ce    s       0.000105     -0.001244      0.001230      0.000000
    548 Ce    s       0.000149      0.001165     -0.001918      0.000000
    549 Ce    s      -0.000168      0.000324     -0.001475      0.000000
    550 Ce    s       0.000025      0.001552     -0.001222      0.000000
    551 Ce    s      -0.000030      0.001397     -0.001109      0.000000
    552 Ce    s      -0.000002      0.001504      0.000204      0.000000
    553 Ce    s       0.000195     -0.001260      0.000586      0.000000
    554 Ce    s      -0.000153     -0.000613     -0.001057      0.000000
    555 Ce    s       0.000047      0.000617     -0.000942      0.000000
    556 Ce    s       0.000026      0.000450     -0.000195      0.000000
    557 Ce    s       0.000281     -0.001480     -0.000273      0.000000
    558 Ce    s      -0.000073      0.000712     -0.000972      0.000000
    559 Ce    s      -0.000008      0.001413     -0.001448      0.000000
    560 Ce    s       0.000178      0.001247     -0.000987      0.000000
    561 Ce    s      -0.000146     -0.001246      0.002179      0.000000
    562 Ce    s       0.000118     -0.001236      0.002134      0.000000
    563 Ce    s      -0.000154     -0.001277     -0.000246      0.000000
    564 Ce    s       0.000016     -0.000490      0.001287      0.000000
    565 Ce    s      -0.000093      0.000570      0.000842      0.000000
    566 Ce    s       0.000027     -0.000477      0.000198      0.000000
    567 Ce    s       0.000024     -0.001606      0.001040      0.000000
    568 Ce    s       0.000021      0.000458     -0.001616      0.000000
    569 Ce    s      -0.000022     -0.001871      0.000661      0.000000
    570 Ce    s       0.000126     -0.000631     -0.000924      0.000000
    571 Ce    s       0.000008     -0.001595      0.001922      0.000000
    572 Ce    s      -0.000025      0.001280     -0.000480      0.000000
    573 Ce    s       0.000115      0.000677     -0.000644      0.000000
    574 Ce    s      -0.000100     -0.001561      0.000986      0.000000
    575 Ce    s       0.000071      0.001297     -0.001993      0.000000
    576 Ce    s       0.000020      0.000399     -0.001550      0.000000
    577 Ce    s      -0.000039     -0.001455      0.000659      0.000000
    578 Ce    s       0.000075      0.000587     -0.001384      0.000000
    579 Ce    s      -0.000153      0.000555     -0.000527      0.000000
    580 Ce    s      -0.000258     -0.001357      0.002256      0.000000
    581 Ce    s      -0.000219      0.001069     -0.000841      0.000000
    582 Ce    s       0.000008     -0.001292      0.001906      0.000000
    583 Ce    s      -0.000004     -0.000395      0.000191      0.000000
    584 Ce    s       0.000178     -0.000268      0.001244      0.000000
    585 Ce    s      -0.000028     -0.000577      0.001005      0.000000
    586 Ce    s      -0.000053     -0.001304     -0.000084      0.000000
    587 Ce    s      -0.000081      0.000521     -0.001370      0.000000
    588 Ce    s      -0.000187     -0.001118      0.000632      0.000000
    589 Ce    s       0.000052      0.001359     -0.000740      0.000000
    590 Ce    s       0.000005      0.000615      0.000923      0.000000
    591 Ce    s       0.000133     -0.000427      0.000052      0.000000
    592 Ce    s      -0.000023      0.000572     -0.000100      0.000000
    593 Ce    s      -0.000106      0.001402     -0.000680      0.000000
    594 Ce    s       0.000052     -0.001387      0.000646      0.000000
    595 Ce    s      -0.000007      0.001290     -0.000487      0.000000
    596 Ce    s      -0.000060     -0.001429      0.000977      0.000000
    597 Ce    s      -0.000014      0.001441     -0.001358      0.000000
    598 Ce    s       0.000079      0.001174     -0.001511      0.000000
    599 Ce    s       0.000065      0.000605     -0.000342      0.000000
[...]
   1064 O     s      -0.000202      0.000068      0.000001      0.000000
   1065 O     s       0.000058      0.000159     -0.000405      0.000000
   1066 O     s       0.000184      0.000038      0.000043      0.000000
   1067 O     s      -0.000105      0.000002     -0.000083      0.000000
   1068 O     s       0.000171      0.000013      0.000283      0.000000
   1069 O     s      -0.000006      0.000021     -0.000106      0.000000
   1070 O     s       0.000171      0.000072     -0.000051      0.000000
   1071 O     s       0.000356      0.000170      0.000020      0.000000
   1072 O     s       0.000705      0.000277      0.000624      0.000000
   1073 O     s       0.000214     -0.000162     -0.000121      0.000000
   1074 O     s      -0.000035     -0.000397     -0.000565      0.000000
   1075 O     s      -0.000017      0.000181     -0.000015      0.000000
   1076 O     s       0.000025     -0.000338     -0.000111      0.000000
   1077 O     s       0.000085     -0.000103     -0.000186      0.000000
   1078 O     s       0.000028      0.000153     -0.000083      0.000000
  Maximum abs         0.001095      0.002662      0.002606      0.000000

  Time to end of optimisation =     206.9188 seconds

  Timing analysis for GULP :

  Task / Subroutine                                          Time (Seconds)
  Calculation of reciprocal space energy and derivatives         12.8897
  Calculation of real space energy and derivatives              137.1950
  Calculation and manipulation of Hessian matrix                  0.3207
  Calculation of matrix inversion                                50.8359
  Global summation overhead                                       4.3776

  Job Finished at 15:30.36 13th July       2023