  Job Started  at 04:24.16 22nd May        2024

  Number of CPUs =    32

  Host name      = nid004219

  Total number of configurations input =      1

*  Input for Configuration =   1                                               *

  Formula = Na40Mn40Fe32P72O288

  Number of irreducible atoms/shells =     760

  Total number atoms/shells =     760

  Dimensionality = 3               :  Bulk

  Cartesian lattice vectors (Angstroms) :

       31.043999    0.000000    0.000000
        0.000000   18.054300    0.000000
        0.000000    0.000000    9.399360

  Cell parameters (Angstroms/Degrees):

  a =      31.0440    alpha =  90.0000
  b =      18.0543    beta  =  90.0000
  c =       9.3994    gamma =  90.0000

  Initial cell volume =        5268.131279 Angs**3

  Temperature of configuration =   0.00     K

  Pressure of configuration =         0.000 GPa

  Fractional coordinates of asymmetric unit :

   No.  Atomic       x           y          z         Charge      Occupancy
        Label      (Frac)      (Frac)     (Frac)        (e)         (Frac)
      1 Na    c    0.833333 *  0.666667 *  0.750000 *   1.00000    1.000000
      2 Na    c    0.500000 *  0.500000 *  0.750000 *   1.00000    1.000000
      3 Na    c    0.333333 *  0.666667 *  0.500000 *   1.00000    1.000000
      4 Na    c    0.333333 *  0.333333 *  0.500000 *   1.00000    1.000000
      5 Na    c    0.333333 *  0.500000 *  0.500000 *   1.00000    1.000000
      6 Na    c    0.833333 *  0.833333 *  0.750000 *   1.00000    1.000000
      7 Na    c    0.000000 *  0.000000 *  0.000000 *   1.00000    1.000000
      8 Na    c    0.333333 *  0.500000 *  0.000000 *   1.00000    1.000000
      9 Na    c    0.666667 *  0.000000 *  0.500000 *   1.00000    1.000000
     10 Na    c    0.166667 *  0.333333 *  0.250000 *   1.00000    1.000000
     11 Na    c    0.333333 *  0.833333 *  0.500000 *   1.00000    1.000000
     12 Na    c    0.166667 *  0.833333 *  0.750000 *   1.00000    1.000000
     13 Na    c    0.166667 *  0.833333 *  0.250000 *   1.00000    1.000000
     14 Na    c    0.833333 *  0.000000 *  0.250000 *   1.00000    1.000000
     15 Na    c    0.000000 *  0.333333 *  0.000000 *   1.00000    1.000000
     16 Na    c    0.166667 *  0.666667 *  0.750000 *   1.00000    1.000000
     17 Na    c    0.833333 *  0.666667 *  0.250000 *   1.00000    1.000000
     18 Na    c    0.666667 *  0.500000 *  0.000000 *   1.00000    1.000000
     19 Na    c    0.666667 *  0.166667 *  0.500000 *   1.00000    1.000000
     20 Na    c    0.666667 *  0.333333 *  0.000000 *   1.00000    1.000000
     21 Na    c    0.000000 *  0.166667 *  0.500000 *   1.00000    1.000000
     22 Na    c    0.333333 *  0.000000 *  0.500000 *   1.00000    1.000000
     23 Na    c    0.000000 *  0.666667 *  0.000000 *   1.00000    1.000000
     24 Na    c    0.833333 *  0.000000 *  0.750000 *   1.00000    1.000000
     25 Na    c    0.000000 *  0.833333 *  0.000000 *   1.00000    1.000000
     26 Na    c    0.000000 *  0.166667 *  0.000000 *   1.00000    1.000000
     27 Na    c    0.166667 *  0.333333 *  0.750000 *   1.00000    1.000000
     28 Na    c    0.833333 *  0.500000 *  0.750000 *   1.00000    1.000000
     29 Na    c    0.500000 *  0.333333 *  0.750000 *   1.00000    1.000000
     30 Na    c    0.500000 *  0.666667 *  0.750000 *   1.00000    1.000000
     31 Na    c    0.666667 *  0.833333 *  0.000000 *   1.00000    1.000000
     32 Na    c    0.500000 *  0.000000 *  0.750000 *   1.00000    1.000000
     33 Na    c    0.666667 *  0.500000 *  0.500000 *   1.00000    1.000000
     34 Na    c    0.166667 *  0.166667 *  0.750000 *   1.00000    1.000000
     35 Na    c    0.000000 *  0.833333 *  0.500000 *   1.00000    1.000000
     36 Na    c    0.500000 *  0.166667 *  0.750000 *   1.00000    1.000000
     37 Na    c    0.500000 *  0.500000 *  0.250000 *   1.00000    1.000000
     38 Na    c    0.500000 *  0.833333 *  0.750000 *   1.00000    1.000000
     39 Na    c    0.000000 *  0.333333 *  0.500000 *   1.00000    1.000000
     40 Na    c    0.500000 *  0.333333 *  0.250000 *   1.00000    1.000000
     41 Mn    c    0.072667 *  0.916667 *  0.736900 *   2.00000    1.000000
     42 Mn    c    0.427333 *  0.750000 *  0.486900 *   2.00000    1.000000
     43 Mn    c    0.594000 *  0.416666 *  0.763100 *   2.00000    1.000000
     44 Mn    c    0.427333 *  0.416666 *  0.486900 *   2.00000    1.000000
     45 Mn    c    0.260667 *  0.083333 *  0.263100 *   2.00000    1.000000
     46 Mn    c    0.927333 *  0.416666 *  0.763100 *   2.00000    1.000000
     47 Mn    c    0.906000 *  0.916667 *  0.513100 *   2.00000    1.000000
     48 Mn    c    0.072667 *  0.916667 *  0.236900 *   2.00000    1.000000
     49 Mn    c    0.594000 *  0.416666 *  0.263100 *   2.00000    1.000000
     50 Mn    c    0.072667 *  0.583334 *  0.736900 *   2.00000    1.000000
     51 Mn    c    0.594000 *  0.083333 *  0.263100 *   2.00000    1.000000
     52 Mn    c    0.239333 *  0.583334 *  0.513100 *   2.00000    1.000000
     53 Mn    c    0.594000 *  0.083333 *  0.763100 *   2.00000    1.000000
     54 Mn    c    0.239333 *  0.916667 *  0.013100 *   2.00000    1.000000
     55 Mn    c    0.406000 *  0.583334 *  0.736900 *   2.00000    1.000000
     56 Mn    c    0.927333 *  0.083333 *  0.763100 *   2.00000    1.000000
     57 Mn    c    0.927333 *  0.083333 *  0.263100 *   2.00000    1.000000
     58 Mn    c    0.094000 *  0.750000 *  0.486900 *   2.00000    1.000000
     59 Mn    c    0.260667 *  0.750000 *  0.763100 *   2.00000    1.000000
     60 Mn    c    0.572667 *  0.583334 *  0.013100 *   2.00000    1.000000
[...]
    457 O     c    0.721434 *  0.682700 *  0.142150 *   0.90150    1.000000
    458 O     c    0.278566 *  0.317300 *  0.857850 *   0.90150    1.000000
    459 O     c    0.445233 *  0.317300 *  0.392150 *   0.90150    1.000000
    460 O     c    0.888100 *  0.682700 *  0.107850 *   0.90150    1.000000
    461 O     c    0.278566 *  0.849366 *  0.857850 *   0.90150    1.000000
    462 O     c    0.721434 *  0.483967 *  0.142150 *   0.90150    1.000000
    463 O     c    0.888100 *  0.483967 *  0.107850 *   0.90150    1.000000
    464 O     c    0.445233 *  0.849366 *  0.392150 *   0.90150    1.000000
    465 O     c    0.721434 *  0.682700 *  0.642150 *   0.90150    1.000000
    466 O     c    0.278566 *  0.317300 *  0.357850 *   0.90150    1.000000
    467 O     c    0.445233 *  0.317300 *  0.892150 *   0.90150    1.000000
    468 O     c    0.888100 *  0.682700 *  0.607850 *   0.90150    1.000000
    469 O     c    0.278566 *  0.849366 *  0.357850 *   0.90150    1.000000
    470 O     c    0.721434 *  0.483967 *  0.642150 *   0.90150    1.000000
    471 O     c    0.888100 *  0.483967 *  0.607850 *   0.90150    1.000000
    472 O     c    0.445233    0.849366    0.892150     0.90150    1.000000
    473 O     s    0.032433 *  0.083333 *  0.369700 *  -2.89420    1.000000
    474 O     s    0.967567 *  0.916667 *  0.630300 *  -2.89420    1.000000
    475 O     s    0.134234 *  0.916667 *  0.619700 *  -2.89420    1.000000
    476 O     s    0.199100 *  0.083333 *  0.880300 *  -2.89420    1.000000
    477 O     s    0.967567 *  0.250000 *  0.630300 *  -2.89420    1.000000
    478 O     s    0.134234 *  0.250000 *  0.619700 *  -2.89420    1.000000
    479 O     s    0.032433 *  0.083333 *  0.869700 *  -2.89420    1.000000
    480 O     s    0.967567 *  0.916667 *  0.130300 *  -2.89420    1.000000
    481 O     s    0.134234 *  0.916667 *  0.119700 *  -2.89420    1.000000
    482 O     s    0.199100 *  0.083333 *  0.380300 *  -2.89420    1.000000
    483 O     s    0.967567 *  0.250000 *  0.130300 *  -2.89420    1.000000
    484 O     s    0.134234 *  0.250000 *  0.119700 *  -2.89420    1.000000
    485 O     s    0.032433 *  0.416666 *  0.369700 *  -2.89420    1.000000
    486 O     s    0.967567 *  0.583334 *  0.630300 *  -2.89420    1.000000
    487 O     s    0.134234 *  0.583334 *  0.619700 *  -2.89420    1.000000
    488 O     s    0.199100 *  0.416666 *  0.880300 *  -2.89420    1.000000
    489 O     s    0.032433 *  0.750000 *  0.369700 *  -2.89420    1.000000
    490 O     s    0.199100 *  0.750000 *  0.880300 *  -2.89420    1.000000
    491 O     s    0.032433 *  0.416666 *  0.869700 *  -2.89420    1.000000
    492 O     s    0.967567 *  0.583334 *  0.130300 *  -2.89420    1.000000
    493 O     s    0.134234 *  0.583334 *  0.119700 *  -2.89420    1.000000
    494 O     s    0.199100 *  0.416666 *  0.380300 *  -2.89420    1.000000
    495 O     s    0.032433 *  0.750000 *  0.869700 *  -2.89420    1.000000
    496 O     s    0.199100 *  0.750000 *  0.380300 *  -2.89420    1.000000
    497 O     s    0.365766 *  0.083333 *  0.369700 *  -2.89420    1.000000
    498 O     s    0.634234 *  0.916667 *  0.630300 *  -2.89420    1.000000
    499 O     s    0.800900 *  0.916667 *  0.619700 *  -2.89420    1.000000
    500 O     s    0.532433 *  0.083333 *  0.880300 *  -2.89420    1.000000
    501 O     s    0.634234 *  0.250000 *  0.630300 *  -2.89420    1.000000
    502 O     s    0.800900 *  0.250000 *  0.619700 *  -2.89420    1.000000
    503 O     s    0.365766 *  0.083333 *  0.869700 *  -2.89420    1.000000
    504 O     s    0.634234 *  0.916667 *  0.130300 *  -2.89420    1.000000
    505 O     s    0.800900 *  0.916667 *  0.119700 *  -2.89420    1.000000
    506 O     s    0.532433 *  0.083333 *  0.380300 *  -2.89420    1.000000
    507 O     s    0.634234 *  0.250000 *  0.130300 *  -2.89420    1.000000
    508 O     s    0.800900 *  0.250000 *  0.119700 *  -2.89420    1.000000
    509 O     s    0.365766 *  0.416666 *  0.369700 *  -2.89420    1.000000
    510 O     s    0.634234 *  0.583334 *  0.630300 *  -2.89420    1.000000
    511 O     s    0.800900 *  0.583334 *  0.619700 *  -2.89420    1.000000
    512 O     s    0.532433 *  0.416666 *  0.880300 *  -2.89420    1.000000
    513 O     s    0.365766 *  0.750000 *  0.369700 *  -2.89420    1.000000
    514 O     s    0.532433 *  0.750000 *  0.880300 *  -2.89420    1.000000
    515 O     s    0.365766 *  0.416666 *  0.869700 *  -2.89420    1.000000
    516 O     s    0.634234 *  0.583334 *  0.130300 *  -2.89420    1.000000
    517 O     s    0.800900 *  0.583334 *  0.119700 *  -2.89420    1.000000
    518 O     s    0.532433 *  0.416666 *  0.380300 *  -2.89420    1.000000
    519 O     s    0.365766 *  0.750000 *  0.869700 *  -2.89420    1.000000
    520 O     s    0.532433 *  0.750000 *  0.380300 *  -2.89420    1.000000
    521 O     s    0.699100 *  0.083333 *  0.369700 *  -2.89420    1.000000
    522 O     s    0.300900 *  0.916667 *  0.630300 *  -2.89420    1.000000
    523 O     s    0.467567 *  0.916667 *  0.619700 *  -2.89420    1.000000
    524 O     s    0.865766 *  0.083333 *  0.880300 *  -2.89420    1.000000
    525 O     s    0.300900 *  0.250000 *  0.630300 *  -2.89420    1.000000
    526 O     s    0.467567 *  0.250000 *  0.619700 *  -2.89420    1.000000
    527 O     s    0.699100 *  0.083333 *  0.869700 *  -2.89420    1.000000
    528 O     s    0.300900 *  0.916667 *  0.130300 *  -2.89420    1.000000
    529 O     s    0.467567 *  0.916667 *  0.119700 *  -2.89420    1.000000
[...]
            z      -0.2697      0.2744     -1.4574
  461 O     x      -1.3847     -0.2792      0.2418
            y      -0.4316     -1.6883      0.1777
            z       0.2900      0.1985     -1.3443
  462 O     x      -1.2785     -0.2547      0.2257
            y      -0.3663     -1.8271      0.2476
            z       0.2208      0.2259     -1.3307
  463 O     x      -1.3723     -0.1629     -0.4175
            y      -0.3367     -1.7017     -0.2591
            z      -0.4539     -0.2180     -1.5556
  464 O     x      -1.3711     -0.2435     -0.2578
            y      -0.3828     -1.6616     -0.1509
            z      -0.2891     -0.1704     -1.3153
  465 O     x      -1.5618      0.3067      0.4802
            y       0.4547     -1.7106     -0.2413
            z       0.5035     -0.2190     -1.6095
  466 O     x      -1.3828      0.3326      0.1194
            y       0.4200     -2.0813     -0.1225
            z       0.2014     -0.2316     -1.3340
  467 O     x      -1.2987      0.2240     -0.1848
            y       0.2676     -1.6960      0.2338
            z      -0.2148      0.2488     -1.4122
  468 O     x      -1.4527      0.3187     -0.3651
            y       0.4374     -1.9947      0.1098
            z      -0.3576      0.1173     -1.5300
  469 O     x      -1.4677     -0.2532      0.3815
            y      -0.3914     -1.8093      0.2553
            z       0.3807      0.1794     -1.5276
  470 O     x      -1.4172     -0.2876      0.2496
            y      -0.4101     -1.8320      0.2265
            z       0.2573      0.2261     -1.3723
  471 O     x      -1.3084     -0.2773     -0.1680
            y      -0.4630     -2.2036     -0.1775
            z      -0.2367     -0.2680     -1.3785
  472 O     x      -1.3709     -0.2813     -0.1950
            y      -0.4348     -2.1054     -0.1039
            z      -0.1849     -0.1423     -1.2977

  Elastic Constant Matrix: (Units=GPa)

  Indices      1         2         3         4         5         6
       1    198.5115   72.6085   91.1525    0.6233   -1.1219    0.2933
       2     72.6085  150.4441   46.6241   -0.9231    2.1129   -0.9624
       3     91.1525   46.6241  173.5919    1.2806    0.4577    1.3332
       4      0.6233   -0.9231    1.2806   30.0602    0.3812    2.1254
       5     -1.1219    2.1129    0.4577    0.3812   61.4239   -0.9056
       6      0.2933   -0.9624    1.3332    2.1254   -0.9056   46.4196

  Elastic Compliance Matrix: (Units=1/GPa)

  Indices      1         2         3         4         5         6
       1    0.007475 -0.002613 -0.003223 -0.000101  0.000251  0.000001
       2   -0.002613  0.008172 -0.000826  0.000331 -0.000322  0.000188
       3   -0.003223 -0.000826  0.007679 -0.000270 -0.000089 -0.000207
       4   -0.000101  0.000331 -0.000270  0.033401 -0.000241 -0.001519
       5    0.000251 -0.000322 -0.000089 -0.000241  0.016303  0.000323
       6    0.000001  0.000188 -0.000207 -0.001519  0.000323  0.021628

  Mechanical properties :

  Convention :                    Reuss         Voigt         Hill
  Bulk  Modulus (GPa)     =      99.98392     104.81308     102.39850
  Shear Modulus (GPa)     =      44.91752      48.39156      46.65454
  Velocity S-wave (km/s)  =       3.55266       3.68749       3.62070
  Velocity P-wave (km/s)  =       6.70247       6.89794       6.80090
  Compressibility (1/GPa) =    0.01000161
  Stress axis :                     x             y             z
  Youngs Moduli (GPa)     =     133.77997     122.37333     130.22929
  Poissons Ratio (x)      =                     0.31974       0.41976
  Poissons Ratio (y)      =       0.34955                     0.10755
  Poissons Ratio (z)      =       0.43120       0.10106

  Piezoelectric Strain Matrix: (Units=C/m**2)

  Indices      1         2         3         4         5         6
       x     0.37746   0.27911  -0.31938   0.49904   0.16124   0.17197
       y     0.70740  -1.57438   2.39503  -0.39445   0.02160  -0.96433
       z    -0.12646  -0.55753  -0.38340   0.22108   0.07091   0.43970

  Piezoelectric Stress Matrix: (Units=10**-11 C/N)

  Indices      1         2         3         4         5         6
       x     0.31118   0.17040  -0.40842   1.65086   0.25974   0.31324
       y     0.17264  -1.70106   1.77148  -1.29547   0.06066  -2.10417
       z     0.17430  -0.37758  -0.22328   0.66312   0.14268   0.91713

  Static dielectric constant tensor :

              x         y         z
       x     5.92303  -0.24062  -0.05443
       y    -0.24062  10.91316  -0.19843
       z    -0.05443  -0.19843   5.42098

  High frequency dielectric constant tensor :

              x         y         z
       x     2.16857  -0.00177  -0.00122
       y    -0.00177   2.18804  -0.00176
       z    -0.00122  -0.00176   2.11998

  Static refractive indices :

    1 =    2.32507      2 =    2.43301      3 =    3.30631

  High frequency refractive indices :

    1 =    1.45599      2 =    1.47256      3 =    1.47927

  Phonon Calculation :

  Number of k points for this configuration =        1

  K point      1 =   0.000000  0.000000  0.000000  Weight =    1.000

  Frequencies (cm-1) [NB: Negative implies an imaginary mode]:

   -0.00    0.00    0.00   33.73   34.94   36.92   41.22   41.31   43.80
   44.43   49.00   50.34   52.84   53.21   54.05   57.21   57.94   58.37
   59.07   59.42   61.50   61.96   63.34   64.44   65.46   65.78   66.49
   67.05   67.36   67.65   69.28   69.62   70.08   71.35   72.43   72.71
   73.57   74.70   74.79   75.79   76.48   76.57   77.00   77.50   78.47
   78.86   79.66   80.73   81.20   81.88   82.30   83.01   83.18   83.67
   84.95   85.18   86.36   86.59   86.69   87.92   88.01   88.26   88.36
   89.39   89.86   90.62   91.02   91.68   92.06   92.49   93.13   93.91
   94.33   94.38   95.76   95.90   96.17   97.18   97.51   98.03   98.68
   99.02   99.27   99.93  100.59  101.11  101.30  101.82  102.32  102.55
  103.56  103.70  104.39  104.95  105.28  105.42  105.78  106.21  106.80
  107.49  107.58  107.78  108.26  109.11  109.54  109.59  110.64  110.93
  111.07  111.47  112.10  112.19  112.93  113.02  113.63  114.21  114.36
  114.75  114.79  115.07  115.72  116.02  116.30  116.91  117.23  117.64
  118.10  118.43  118.90  119.38  119.57  120.08  120.70  120.99  121.15
  121.37  122.34  122.45  122.85  123.22  123.73  123.94  124.48  124.84
  125.53  125.60  126.22  126.74  127.07  127.63  127.80  128.08  128.46
  129.29  129.66  130.04  130.63  131.06  131.17  131.48  131.61  132.04
  132.69  132.99  133.41  133.58  134.16  134.61  134.75  135.10  135.25
  135.72  135.99  136.62  137.02  137.22  137.82  138.60  138.62  138.80
  139.11  139.80  140.35  140.44  141.11  141.38  141.56  142.38  142.54
  142.77  143.13  143.24  143.47  143.76  144.13  144.53  144.73  145.24
  145.59  146.00  146.60  146.85  147.18  147.60  148.15  148.40  148.78
  149.40  149.64  149.90  150.42  150.71  150.75  151.19  151.62  151.83
  152.16  152.52  152.98  153.03  153.48  153.58  154.04  154.59  155.15
  155.51  155.61  156.03  156.25  156.59  156.88  157.44  158.03  158.09
  158.45  158.83  159.58  159.89  159.97  160.38  160.80  160.96  161.31
  161.86  162.00  162.37  162.41  162.83  163.38  163.44  163.78  164.06
  164.58  164.98  165.40  165.51  166.17  166.27  166.93  167.20  167.54
  167.68  168.00  168.58  168.67  169.02  169.41  169.72  170.20  170.32
  170.43  170.88  171.38  171.90  172.05  172.35  172.37  173.17  173.23
  173.87  174.00  174.52  174.76  175.08  175.22  175.80  176.08  176.44
  176.76  177.18  177.74  177.95  178.40  178.53  179.05  179.46  179.82
  180.27  180.56  180.81  180.99  181.37  181.59  182.10  182.51  182.61
  183.30  183.82  184.18  184.72  184.77  185.16  185.36  185.87  186.29
  186.84  186.97  187.26  187.82  188.21  188.58  188.83  189.08  189.69
  189.91  190.13  190.40  190.71  190.89  191.33  191.72  192.00  192.33
  192.53  192.77  193.36  193.88  194.24  194.47  194.67  194.98  195.50
  195.60  195.88  196.62  197.05  197.39  197.57  197.73  198.16  198.42
  198.70  198.98  199.41  199.49  199.95  200.23  200.93  201.13  201.51
  201.71  202.16  202.37  202.86  203.03  203.53  203.69  204.59  204.73
  205.07  205.45  206.04  206.15  206.72  207.09  207.38  207.81  208.00
  208.46  208.90  208.95  209.18  209.61  210.03  210.25  210.53  211.10
  211.52  211.85  212.25  212.31  212.87  213.10  213.68  213.89  214.35
  214.63  214.80  215.14  215.77  215.90  216.10  216.61  216.92  217.22
  217.55  217.77  217.89  218.35  218.87  219.42  219.54  219.96  220.32
  220.45  221.21  221.34  222.23  222.24  222.53  222.78  223.43  224.04
  224.39  224.87  225.02  225.55  226.12  226.57  227.08  227.36  227.61
  227.86  228.28  228.81  228.92  229.38  229.84  230.16  230.74  230.89
  231.31  231.70  232.04  232.26  232.77  233.21  233.93  234.28  234.71
  234.85  235.23  235.62  235.71  236.09  236.47  236.85  237.01  237.43
  237.69  238.75  239.31  239.45  239.65  239.78  240.51  241.28  241.51
  241.86  242.19  242.26  242.61  242.95  243.80  244.17  244.94  245.18
  245.66  246.31  246.61  246.78  247.08  247.82  248.26  248.59  248.99
  249.68  250.21  250.41  250.47  250.87  250.98  251.59  251.72  252.15
  252.38  253.15  253.90  254.02  254.47  254.89  255.78  255.86  256.05
  256.82  257.61  257.81  258.10  258.97  259.28  259.89  260.27  260.53
  260.54  261.13  261.94  262.35  262.85  263.16  263.71  263.95  264.75
  265.20  265.61  265.76  265.99  266.36  267.08  267.21  267.67  268.31
  268.62  269.11  269.49  269.79  270.55  271.21  271.61  272.04  272.20
[...]
 1067.60 1068.26 1069.61 1070.70 1072.57 1073.32 1075.83 1077.80 1078.67
 1079.53 1080.60 1081.94 1084.07 1085.67 1085.85 1088.08 1088.47 1089.60
 1090.35 1091.43 1092.53 1094.23 1095.75 1096.21 1097.72 1098.42 1098.79
 1099.67 1100.87 1103.25 1104.08 1105.54 1107.07 1109.70 1110.51 1111.31
 1113.16 1114.89 1115.88 1116.82 1118.73 1119.74 1120.37 1121.56 1122.82
 1123.73 1124.34 1125.64 1127.10 1129.97 1130.53 1132.18 1135.34 1135.99
 1139.68 1139.95 1143.66 1144.19 1145.44 1147.50 1149.70 1149.92 1151.93
 1152.37 1153.95 1154.65 1156.26 1158.09 1158.97 1159.85 1162.43 1163.41
 1166.60 1167.08 1168.66 1172.32 1172.99 1174.20 1174.75 1175.38 1176.30
 1177.14 1179.13 1180.41 1181.03 1183.56 1184.73 1185.79 1187.23 1189.86
 1191.14 1191.40 1193.00 1194.92 1196.24 1198.70 1199.56 1202.82 1204.72
 1205.34 1209.41 1211.06 1211.60 1212.70 1215.10 1215.66 1217.60 1217.63
 1220.59 1221.63 1224.87 1226.21 1226.78 1229.29 1231.38 1231.57 1234.20
 1235.49 1237.67 1241.49 1243.12 1248.78 1251.91 1253.75 1259.96 1264.85
 1267.39 1273.44 1283.09

  Phonon properties (per mole of unit cells): Temperature =      0.000 K
  Zero point energy             =       40.389380 eV

  Phonon density of states :

 Frequency (cm-1) Density of States
    0.00000 |**                                                            0.001
   20.04833 |***                                                           0.002
   40.09666 |**************                                                0.010
   60.14499 |***************************                                   0.019
   80.19332 |*************************************                         0.026
  100.24165 |************************************************              0.034
  120.28998 |**************************************************            0.035
  140.33831 |**********************************************************    0.041
  160.38664 |**********************************************************    0.041
  180.43497 |************************************************************  0.042
  200.48330 |**********************************************************    0.041
  220.53163 |***************************************************           0.036
  240.57996 |************************************************              0.034
  260.62830 |********************************************                  0.031
  280.67663 |****************************************************          0.037
  300.72496 |**************************************************            0.035
  320.77329 |*************************************************             0.035
  340.82162 |***************************************                       0.028
  360.86995 |***********************************                           0.025
  380.91828 |************************                                      0.017
  400.96661 |******************                                            0.013
  421.01494 |*******************                                           0.013
  441.06327 |******************************                                0.021
  461.11160 |**************************                                    0.018
  481.15993 |***********                                                   0.008
  501.20826 |****************                                              0.011
  521.25659 |****************************************                      0.028
  541.30492 |**********************************************                0.033
  561.35325 |***********************************                           0.025
  581.40158 |**************                                                0.010
  601.44991 |*********************************                             0.023
  621.49824 |****************************                                  0.020
  641.54657 |*****                                                         0.004
  661.59490 |                                                              0.000
  681.64323 |                                                              0.000
  701.69156 |                                                              0.000
  721.73989 |                                                              0.000
  741.78823 |                                                              0.000
  761.83656 |                                                              0.000
  781.88489 |                                                              0.000
  801.93322 |                                                              0.000
  821.98155 |**                                                            0.001
  842.02988 |**                                                            0.001
  862.07821 |******                                                        0.004
  882.12654 |********                                                      0.006
  902.17487 |****************                                              0.011
  922.22320 |*************************                                     0.018
  942.27153 |*********************************                             0.023
  962.31986 |***************                                               0.011
  982.36819 |*******************                                           0.013
 1002.41652 |**********                                                    0.007
 1022.46485 |**********                                                    0.007
 1042.51318 |*********                                                     0.006
 1062.56151 |****************                                              0.011
 1082.60984 |*****************                                             0.012
 1102.65817 |***************                                               0.011
 1122.70650 |************                                                  0.008
 1142.75483 |***************                                               0.011
 1162.80316 |**************                                                0.010
 1182.85149 |*************                                                 0.009
 1202.89982 |************                                                  0.008
 1222.94816 |**********                                                    0.007
 1242.99649 |*****                                                         0.004
 1263.04482 |****                                                          0.003

  Time to end of optimisation =      20.5209 seconds

  Timing analysis for GULP :

  Task / Subroutine                                          Time (Seconds)
  Calculation of reciprocal space energy and derivatives          1.8242
  Calculation of real space energy and derivatives                6.6739
  Calculation of phonons                                          1.0538
  Calculation and manipulation of Hessian matrix                  7.8949
  Calculation of matrix diagonalisation                           0.2669
  Calculation of matrix inversion                                 2.9502
  Global summation overhead                                       0.1587

  Dump file written as gulp.res
  CIF file written as cryst.cif

  Job Finished at 04:24.37 22nd May        2024